c description: Perfect Matching Principle on 
c generator: CNFgen (0.9.0)
c copyright: (C) 2012-2020 Massimo Lauria <massimo.lauria@uniroma1.it>
c url: https://massimolauria.net/cnfgen
c
p cnf 80 360
1 0
-2 -3 0
-2 -4 0
-3 -4 0
2 3 4 0
-1 -5 0
-1 -6 0
-1 -7 0
-1 -8 0
-5 -6 0
-5 -7 0
-5 -8 0
-6 -7 0
-6 -8 0
-7 -8 0
1 5 6 7 8 0
-5 -9 0
-5 -10 0
-5 -11 0
-5 -12 0
-5 -13 0
-5 -14 0
-9 -10 0
-9 -11 0
-9 -12 0
-9 -13 0
-9 -14 0
-10 -11 0
-10 -12 0
-10 -13 0
-10 -14 0
-11 -12 0
-11 -13 0
-11 -14 0
-12 -13 0
-12 -14 0
-13 -14 0
5 9 10 11 12 13 14 0
-2 -15 0
-2 -16 0
-2 -17 0
-2 -18 0
-2 -19 0
-15 -16 0
-15 -17 0
-15 -18 0
-15 -19 0
-16 -17 0
-16 -18 0
-16 -19 0
-17 -18 0
-17 -19 0
-18 -19 0
2 15 16 17 18 19 0
-20 -21 0
-20 -22 0
-21 -22 0
20 21 22 0
-9 -20 0
-9 -23 0
-9 -24 0
-9 -25 0
-9 -26 0
-9 -27 0
-9 -28 0
-20 -23 0
-20 -24 0
-20 -25 0
-20 -26 0
-20 -27 0
-20 -28 0
-23 -24 0
-23 -25 0
-23 -26 0
-23 -27 0
-23 -28 0
-24 -25 0
-24 -26 0
-24 -27 0
-24 -28 0
-25 -26 0
-25 -27 0
-25 -28 0
-26 -27 0
-26 -28 0
-27 -28 0
9 20 23 24 25 26 27 28 0
-15 -29 0
-15 -30 0
-15 -31 0
-15 -32 0
-15 -33 0
-29 -30 0
-29 -31 0
-29 -32 0
-29 -33 0
-30 -31 0
-30 -32 0
-30 -33 0
-31 -32 0
-31 -33 0
-32 -33 0
15 29 30 31 32 33 0
-34 -35 0
-34 -36 0
-34 -37 0
-35 -36 0
-35 -37 0
-36 -37 0
34 35 36 37 0
-16 -38 0
-16 -39 0
-38 -39 0
16 38 39 0
-40 -41 0
-40 -42 0
-40 -43 0
-40 -44 0
-40 -45 0
-40 -46 0
-40 -47 0
-41 -42 0
-41 -43 0
-41 -44 0
-41 -45 0
-41 -46 0
-41 -47 0
-42 -43 0
-42 -44 0
-42 -45 0
-42 -46 0
-42 -47 0
-43 -44 0
-43 -45 0
-43 -46 0
-43 -47 0
-44 -45 0
-44 -46 0
-44 -47 0
-45 -46 0
-45 -47 0
-46 -47 0
40 41 42 43 44 45 46 47 0
-17 -48 0
-17 -49 0
-17 -50 0
-48 -49 0
-48 -50 0
-49 -50 0
17 48 49 50 0
-3 -6 0
-3 -51 0
-6 -51 0
3 6 51 0
-10 -40 0
10 40 0
-41 -52 0
-41 -53 0
-52 -53 0
41 52 53 0
-54 -55 0
-54 -56 0
-55 -56 0
54 55 56 0
-34 -57 0
-34 -58 0
-34 -59 0
-34 -60 0
-34 -61 0
-57 -58 0
-57 -59 0
-57 -60 0
-57 -61 0
-58 -59 0
-58 -60 0
-58 -61 0
-59 -60 0
-59 -61 0
-60 -61 0
34 57 58 59 60 61 0
-57 -62 0
-57 -63 0
-62 -63 0
57 62 63 0
-42 -52 0
-42 -64 0
-42 -65 0
-52 -64 0
-52 -65 0
-64 -65 0
42 52 64 65 0
-11 -38 0
-11 -58 0
-11 -66 0
-11 -67 0
-38 -58 0
-38 -66 0
-38 -67 0
-58 -66 0
-58 -67 0
-66 -67 0
11 38 58 66 67 0
-23 -43 0
-23 -48 0
-23 -68 0
-43 -48 0
-43 -68 0
-48 -68 0
23 43 48 68 0
-12 -24 0
-12 -29 0
-12 -64 0
-12 -69 0
-24 -29 0
-24 -64 0
-24 -69 0
-29 -64 0
-29 -69 0
-64 -69 0
12 24 29 64 69 0
-18 -25 0
-18 -49 0
-18 -70 0
-18 -71 0
-25 -49 0
-25 -70 0
-25 -71 0
-49 -70 0
-49 -71 0
-70 -71 0
18 25 49 70 71 0
-7 -26 0
-7 -30 0
-7 -72 0
-7 -73 0
-26 -30 0
-26 -72 0
-26 -73 0
-30 -72 0
-30 -73 0
-72 -73 0
7 26 30 72 73 0
35 0
-13 -36 0
-13 -39 0
-13 -50 0
-13 -59 0
-13 -68 0
-36 -39 0
-36 -50 0
-36 -59 0
-36 -68 0
-39 -50 0
-39 -59 0
-39 -68 0
-50 -59 0
-50 -68 0
-59 -68 0
13 36 39 50 59 68 0
-27 -31 0
-27 -44 0
-27 -60 0
-31 -44 0
-31 -60 0
-44 -60 0
27 31 44 60 0
-45 -53 0
-45 -69 0
-45 -72 0
-45 -74 0
-53 -69 0
-53 -72 0
-53 -74 0
-69 -72 0
-69 -74 0
-72 -74 0
45 53 69 72 74 0
0
-4 -46 0
-4 -51 0
-4 -75 0
-46 -51 0
-46 -75 0
-51 -75 0
4 46 51 75 0
-8 -76 0
8 76 0
-74 -77 0
74 77 0
-32 -76 0
-32 -78 0
-32 -79 0
-76 -78 0
-76 -79 0
-78 -79 0
32 76 78 79 0
-62 -70 0
-62 -80 0
-70 -80 0
62 70 80 0
-14 -28 0
-14 -37 0
-14 -47 0
-14 -66 0
-14 -71 0
-28 -37 0
-28 -47 0
-28 -66 0
-28 -71 0
-37 -47 0
-37 -66 0
-37 -71 0
-47 -66 0
-47 -71 0
-66 -71 0
14 28 37 47 66 71 0
-54 -61 0
-54 -67 0
-61 -67 0
54 61 67 0
-19 -21 0
-19 -55 0
-19 -73 0
-19 -75 0
-19 -78 0
-21 -55 0
-21 -73 0
-21 -75 0
-21 -78 0
-55 -73 0
-55 -75 0
-55 -78 0
-73 -75 0
-73 -78 0
-75 -78 0
19 21 55 73 75 78 0
0
56 0
-22 -33 0
-22 -63 0
-22 -65 0
-22 -77 0
-22 -79 0
-22 -80 0
-33 -63 0
-33 -65 0
-33 -77 0
-33 -79 0
-33 -80 0
-63 -65 0
-63 -77 0
-63 -79 0
-63 -80 0
-65 -77 0
-65 -79 0
-65 -80 0
-77 -79 0
-77 -80 0
-79 -80 0
22 33 63 65 77 79 80 0